 DBCSR| CPU Multiplication driver                                           BLAS (U)
 DBCSR| Multrec recursion limit                                              512 (U)
 DBCSR| Multiplication stack size                                           1000 (D)
 DBCSR| Maximum elements for images                                    UNLIMITED (U)
 DBCSR| Multiplicative factor virtual images                                   1 (U)
 DBCSR| Use multiplication densification                                       T (D)
 DBCSR| Multiplication size stacks                                             3 (U)
 DBCSR| Use memory pool for CPU allocation                                     F (U)
 DBCSR| Number of 3D layers                                               SINGLE (U)
 DBCSR| Use MPI memory allocation                                              F (U)
 DBCSR| Use RMA algorithm                                                      F (U)
 DBCSR| Use Communication thread                                               T (U)
 DBCSR| Communication thread load                                             60 (D)
 DBCSR| MPI: My process id                                                     0
 DBCSR| MPI: Number of processes                                               1
 DBCSR| OMP: Current number of threads                                         8
 DBCSR| OMP: Max number of threads                                             8
 DBCSR| Split modifier for TAS multiplication algorithm                  1.0E+00 (U)


  **** **** ******  **  PROGRAM STARTED AT               2026-08-13 08:53:00.643
 ***** ** ***  *** **   PROGRAM STARTED ON               Seris-MacBook-Pro.local
 **    ****   ******    PROGRAM STARTED BY                                  seri
 ***** **    ** ** **   PROGRAM PROCESS ID                                  1216
  **** **  *******  **  PROGRAM STARTED IN /Users/seri/Documents/cp2k-practice/0
                                           1_basics/h2o_energy

 CP2K| version string:                                       CP2K version 2026.2
 CP2K| source code revision number:                                  git:c92cc08
 CP2K| cp2kflags: omp libint fftw3 libxc parallel scalapack mpi_f08 no_statm_acc
 CP2K|            ess
 CP2K| is freely available from                            https://www.cp2k.org/
 CP2K| Program compiled at                                   2026-07-15 09:10:24
 CP2K| Program compiled on                                                      
 CP2K| Program compiled for                                                arm64
 CP2K| Data directory path      /opt/homebrew/Cellar/cp2k/2026.2/share/cp2k/data
 CP2K| Input file name                                           H2O_GEO_OPT.inp

 GLOBAL| Force Environment number                                              1
 GLOBAL| Basis set file name                                        BASIS_MOLOPT
 GLOBAL| Potential file name                                           POTENTIAL
 GLOBAL| MM Potential file name                                     MM_POTENTIAL
 GLOBAL| Coordinate file name                                      __STD_INPUT__
 GLOBAL| Method name                                                        CP2K
 GLOBAL| Project name                                              H2O_POTENTIAL
 GLOBAL| Run type                                                        GEO_OPT
 GLOBAL| FFT library                                                       FFTW3
 GLOBAL| Diagonalization library                                       ScaLAPACK
 GLOBAL| Cholesky decomposition library                                ScaLAPACK
 GLOBAL| DGEMM library                                                      BLAS
 GLOBAL| Direct generalized diagonalization requested                          F
 GLOBAL| Orthonormality check for eigenvectors                          DISABLED
 GLOBAL| Matrix multiplication library                                 ScaLAPACK
 GLOBAL| All-to-all communication in single precision                          F
 GLOBAL| FFTs using library dependent lengths                                  F
 GLOBAL| Grid backend                                                       AUTO
 GLOBAL| Global print level                                               MEDIUM
 GLOBAL| MPI I/O enabled                                                       T
 GLOBAL| Total number of message passing processes                             1
 GLOBAL| Number of distributed systems (nodes)                                 1
 GLOBAL| Number of threads for this process                                    8
 GLOBAL| This output is from process                                           0
 GLOBAL| OpenMP stack size per thread (OMP_STACKSIZE)                    default
 GLOBAL| CPU model name                                                  UNKNOWN
 GLOBAL| CPUID                                                              2000

 MEMORY| system memory details [Kb]
 MEMORY|                        rank 0           min           max       average
 MEMORY| MemTotal                    0             0             0             0
 MEMORY| MemFree                     0             0             0             0
 MEMORY| Buffers                     0             0             0             0
 MEMORY| Cached                      0             0             0             0
 MEMORY| Slab                        0             0             0             0
 MEMORY| SReclaimable                0             0             0             0
 MEMORY| MemLikelyFree               0             0             0             0


 *** Fundamental physical constants (SI units) ***

 *** Literature: B. J. Mohr and B. N. Taylor,
 ***             CODATA recommended values of the fundamental physical
 ***             constants: 2006, Web Version 5.1
 ***             http://physics.nist.gov/constants

 Speed of light in vacuum [m/s]                             2.99792458000000E+08
 Magnetic constant or permeability of vacuum [N/A**2]       1.25663706143592E-06
 Electric constant or permittivity of vacuum [F/m]          8.85418781762039E-12
 Planck constant (h) [J*s]                                  6.62606896000000E-34
 Planck constant (h-bar) [J*s]                              1.05457162825177E-34
 Elementary charge [C]                                      1.60217648700000E-19
 Electron mass [kg]                                         9.10938215000000E-31
 Electron g factor [ ]                                     -2.00231930436220E+00
 Proton mass [kg]                                           1.67262163700000E-27
 Fine-structure constant                                    7.29735253760000E-03
 Rydberg constant [1/m]                                     1.09737315685270E+07
 Avogadro constant [1/mol]                                  6.02214179000000E+23
 Boltzmann constant [J/K]                                   1.38065040000000E-23
 Atomic mass unit [kg]                                      1.66053878200000E-27
 Bohr radius [m]                                            5.29177208590000E-11

 *** Conversion factors ***

 [u] -> [a.u.]                                              1.82288848426455E+03
 [Angstrom] -> [Bohr] = [a.u.]                              1.88972613288564E+00
 [a.u.] = [Bohr] -> [Angstrom]                              5.29177208590000E-01
 [a.u.] -> [s]                                              2.41888432650478E-17
 [a.u.] -> [fs]                                             2.41888432650478E-02
 [a.u.] -> [J]                                              4.35974393937059E-18
 [a.u.] -> [N]                                              8.23872205491840E-08
 [a.u.] -> [K]                                              3.15774647902944E+05
 [a.u.] -> [kJ/mol]                                         2.62549961709828E+03
 [a.u.] -> [kcal/mol]                                       6.27509468713739E+02
 [a.u.] -> [Pa]                                             2.94210107994716E+13
 [a.u.] -> [bar]                                            2.94210107994716E+08
 [a.u.] -> [atm]                                            2.90362800883016E+08
 [a.u.] -> [eV]                                             2.72113838565563E+01
 [a.u.] -> [Hz]                                             6.57968392072181E+15
 [a.u.] -> [1/cm] (wave numbers)                            2.19474631370540E+05
 [a.u./Bohr**2] -> [1/cm]                                   5.14048714338585E+03
 

 CELL| Volume [angstrom^3]:                                          1000.000000
 CELL| Vector a [angstrom]:      10.000     0.000     0.000   |a| =    10.000000
 CELL| Vector b [angstrom]:       0.000    10.000     0.000   |b| =    10.000000
 CELL| Vector c [angstrom]:       0.000     0.000    10.000   |c| =    10.000000
 CELL| Angle (b,c), alpha [degree]:                                    90.000000
 CELL| Angle (a,c), beta  [degree]:                                    90.000000
 CELL| Angle (a,b), gamma [degree]:                                    90.000000
 CELL| Numerically orthorhombic:                                             YES
 CELL| Periodicity                                                           XYZ

 CELL_REF| Volume [angstrom^3]:                                      1000.000000
 CELL_REF| Vector a [angstrom    10.000     0.000     0.000   |a| =    10.000000
 CELL_REF| Vector b [angstrom     0.000    10.000     0.000   |b| =    10.000000
 CELL_REF| Vector c [angstrom     0.000     0.000    10.000   |c| =    10.000000
 CELL_REF| Angle (b,c), alpha [degree]:                                90.000000
 CELL_REF| Angle (a,c), beta  [degree]:                                90.000000
 CELL_REF| Angle (a,b), gamma [degree]:                                90.000000
 CELL_REF| Numerically orthorhombic:                                         YES
 CELL_REF| Periodicity                                                       XYZ

 GENERATE|  Preliminary Number of Bonds generated:                             0
 GENERATE|  Achieved consistency in connectivity generation.

 *******************************************************************************
 *******************************************************************************
 **                                                                           **
 **     #####                         ##              ##                      **
 **    ##   ##            ##          ##              ##                      **
 **   ##     ##                       ##            ######                    **
 **   ##     ##  ##   ##  ##   #####  ##  ##   ####   ##    #####    #####    **
 **   ##     ##  ##   ##  ##  ##      ## ##   ##      ##   ##   ##  ##   ##   **
 **   ##  ## ##  ##   ##  ##  ##      ####     ###    ##   ######   ######    **
 **    ##  ###   ##   ##  ##  ##      ## ##      ##   ##   ##       ##        **
 **     #######   #####   ##   #####  ##  ##  ####    ##    #####   ##        **
 **           ##                                                    ##        **
 **                                                                           **
 **                                                ... make the atoms dance   **
 **                                                                           **
 **            Copyright (C) by CP2K developers group (2000-2026)             **
 **                      J. Chem. Phys. 152, 194103 (2020)                    **
 **                                                                           **
 *******************************************************************************

 DFT| Spin restricted Kohn-Sham (RKS) calculation                            RKS
 DFT| Multiplicity                                                             1
 DFT| Number of spin states                                                    1
 DFT| Charge                                                                   0
 DFT| Self-interaction correction (SIC)                                       NO
 DFT| Cutoffs: density                                              1.000000E-10
 DFT|          gradient                                             1.000000E-10
 DFT|          tau                                                  1.000000E-10
 DFT|          cutoff_smoothing_range                               0.000000E+00
 DFT| XC density smoothing                                                  NONE
 DFT| XC derivatives                                                          PW

 FUNCTIONAL| PBE:
 FUNCTIONAL| J.P.Perdew, K.Burke, M.Ernzerhof, Phys. Rev. Letter, vol. 77, n 18,
 FUNCTIONAL|  pp. 3865-3868, (1996) {spin unpolarized}                          


 QS| Method:                                                                 GPW
 QS| Density plane wave grid type                        NON-SPHERICAL FULLSPACE
 QS| Number of grid levels:                                                    4
 QS| Density cutoff [a.u.]:                                                140.0
 QS| Multi grid cutoff [a.u.]: 1) grid level                               140.0
 QS|                           2) grid level                                46.7
 QS|                           3) grid level                                15.6
 QS|                           4) grid level                                 5.2
 QS| Grid level progression factor:                                          3.0
 QS| Relative density cutoff [a.u.]:                                        20.0
 QS| Interaction thresholds: eps_pgf_orb:                                1.0E-05
 QS|                         eps_filter_matrix:                          0.0E+00
 QS|                         eps_core_charge:                            1.0E-12
 QS|                         eps_rho_gspace:                             1.0E-10
 QS|                         eps_rho_rspace:                             1.0E-10
 QS|                         eps_gvg_rspace:                             1.0E-05
 QS|                         eps_ppl:                                    1.0E-02
 QS|                         eps_ppnl:                                   1.0E-07


 ATOMIC KIND INFORMATION

  1. Atomic kind: O                                     Number of atoms:       1

     Orbital Basis Set                                        DZVP-MOLOPT-SR-GTH

       Number of orbital shell sets:                                           1
       Number of orbital shells:                                               5
       Number of primitive Cartesian functions:                                5
       Number of Cartesian basis functions:                                   14
       Number of spherical basis functions:                                   13
       Norm type:                                                              2

       Normalised Cartesian orbitals:

                        Set   Shell   Orbital            Exponent    Coefficient

                          1       1    2s               10.389228       0.396646
                                                         3.849621       0.208811
                                                         1.388401      -0.301641
                                                         0.496955      -0.274061
                                                         0.162492      -0.033677

                          1       2    3s               10.389228       0.303673
                                                         3.849621       0.240943
                                                         1.388401      -0.313066
                                                         0.496955      -0.043055
                                                         0.162492       0.213991

                          1       3    3px              10.389228      -1.530415
                                                         3.849621      -1.371928
                                                         1.388401      -0.761951
                                                         0.496955      -0.253695
                                                         0.162492      -0.035541
                          1       3    3py              10.389228      -1.530415
                                                         3.849621      -1.371928
                                                         1.388401      -0.761951
                                                         0.496955      -0.253695
                                                         0.162492      -0.035541
                          1       3    3pz              10.389228      -1.530415
                                                         3.849621      -1.371928
                                                         1.388401      -0.761951
                                                         0.496955      -0.253695
                                                         0.162492      -0.035541

                          1       4    4px              10.389228      -0.565392
                                                         3.849621      -0.038231
                                                         1.388401      -0.382373
                                                         0.496955       0.179070
                                                         0.162492       0.122714
                          1       4    4py              10.389228      -0.565392
                                                         3.849621      -0.038231
                                                         1.388401      -0.382373
                                                         0.496955       0.179070
                                                         0.162492       0.122714
                          1       4    4pz              10.389228      -0.565392
                                                         3.849621      -0.038231
                                                         1.388401      -0.382373
                                                         0.496955       0.179070
                                                         0.162492       0.122714

                          1       5    4dx2             10.389228       1.867377
                                                         3.849621       0.670994
                                                         1.388401       1.353441
                                                         0.496955       0.273538
                                                         0.162492       0.006620
                          1       5    4dxy             10.389228       3.234392
                                                         3.849621       1.162195
                                                         1.388401       2.344229
                                                         0.496955       0.473781
                                                         0.162492       0.011466
                          1       5    4dxz             10.389228       3.234392
                                                         3.849621       1.162195
                                                         1.388401       2.344229
                                                         0.496955       0.473781
                                                         0.162492       0.011466
                          1       5    4dy2             10.389228       1.867377
                                                         3.849621       0.670994
                                                         1.388401       1.353441
                                                         0.496955       0.273538
                                                         0.162492       0.006620
                          1       5    4dyz             10.389228       3.234392
                                                         3.849621       1.162195
                                                         1.388401       2.344229
                                                         0.496955       0.473781
                                                         0.162492       0.011466
                          1       5    4dz2             10.389228       1.867377
                                                         3.849621       0.670994
                                                         1.388401       1.353441
                                                         0.496955       0.273538
                                                         0.162492       0.006620

       Atomic covalent radius [Angstrom]:                                  0.730

       Atomic van der Waals radius [Angstrom]:                             1.520

     GTH Potential information for                                       GTH-PBE

       Description:                       Goedecker-Teter-Hutter pseudopotential
                                           Goedecker et al., PRB 54, 1703 (1996)
                                          Hartwigsen et al., PRB 58, 3641 (1998)
                                                      Krack, TCA 114, 145 (2005)

       Gaussian exponent of the core charge distribution:               8.360253
       Electronic configuration (s p d ...):                               2   4

       Parameters of the local part of the GTH pseudopotential:

                          rloc        C1          C2          C3          C4
                        0.244554  -16.667215    2.487311

       Parameters of the non-local part of the GTH pseudopotential:

                   l      r(l)      h(i,j,l)

                   0    0.220956   18.337458
                   1    0.211332

  2. Atomic kind: H                                     Number of atoms:       2

     Orbital Basis Set                                        DZVP-MOLOPT-SR-GTH

       Number of orbital shell sets:                                           1
       Number of orbital shells:                                               3
       Number of primitive Cartesian functions:                                5
       Number of Cartesian basis functions:                                    5
       Number of spherical basis functions:                                    5
       Norm type:                                                              2

       Normalised Cartesian orbitals:

                        Set   Shell   Orbital            Exponent    Coefficient

                          1       1    2s               10.068468      -0.133023
                                                         2.680223      -0.177618
                                                         0.791502      -0.258419
                                                         0.239116      -0.107525
                                                         0.082193      -0.014019

                          1       2    3s               10.068468       0.344673
                                                         2.680223       1.819821
                                                         0.791502      -0.999069
                                                         0.239116       0.017430
                                                         0.082193       0.082660

                          1       3    3px              10.068468       0.155326
                                                         2.680223       0.367157
                                                         0.791502       0.311480
                                                         0.239116       0.080105
                                                         0.082193       0.033440
                          1       3    3py              10.068468       0.155326
                                                         2.680223       0.367157
                                                         0.791502       0.311480
                                                         0.239116       0.080105
                                                         0.082193       0.033440
                          1       3    3pz              10.068468       0.155326
                                                         2.680223       0.367157
                                                         0.791502       0.311480
                                                         0.239116       0.080105
                                                         0.082193       0.033440

       Atomic covalent radius [Angstrom]:                                  0.320

       Atomic van der Waals radius [Angstrom]:                             1.090

     GTH Potential information for                                       GTH-PBE

       Description:                       Goedecker-Teter-Hutter pseudopotential
                                           Goedecker et al., PRB 54, 1703 (1996)
                                          Hartwigsen et al., PRB 58, 3641 (1998)
                                                      Krack, TCA 114, 145 (2005)

       Gaussian exponent of the core charge distribution:              12.500000
       Electronic configuration (s p d ...):                                   1

       Parameters of the local part of the GTH pseudopotential:

                          rloc        C1          C2          C3          C4
                        0.200000   -4.178900    0.724463


 MOLECULE KIND INFORMATION


 All atoms are their own molecule, skipping detailed information


 TOTAL NUMBERS AND MAXIMUM NUMBERS

  Total number of            - Atomic kinds:                                   2
                             - Atoms:                                          3
                             - Shell sets:                                     3
                             - Shells:                                        11
                             - Primitive Cartesian functions:                 15
                             - Cartesian basis functions:                     24
                             - Spherical basis functions:                     23

  Maximum angular momentum of- Orbital basis functions:                        2
                             - Local part of the GTH pseudopotential:          2
                             - Non-local part of the GTH pseudopotential:      0


 MODULE QUICKSTEP: ATOMIC COORDINATES IN ANGSTROM

   Atom Kind Element         X             Y             Z       Z(eff)     Mass
      1    1 O     8      0.000000      0.000000      0.000000   6.0000  15.9994
      2    2 H     1      1.200000      0.000000      0.000000   1.0000   1.0079
      3    2 H     1     -0.419100     -0.459100     -0.718400   1.0000   1.0079



 SCF PARAMETERS         Density guess:                                    ATOMIC
                        --------------------------------------------------------
                        max_scf:                                              50
                        max_scf_history:                                       0
                        max_diis:                                              4
                        --------------------------------------------------------
                        eps_scf:                                        1.00E-05
                        eps_scf_history:                                0.00E+00
                        eps_diis:                                       1.00E-01
                        eps_eigval:                                     1.00E-05
                        --------------------------------------------------------
                        level_shift [a.u.]:                             0.000000
                        --------------------------------------------------------
                        Mixing method:                           DIRECT_P_MIXING
                        --------------------------------------------------------
                        No outer SCF

 PW_GRID| Information for grid number                                          1
 PW_GRID| Cutoff [a.u.]                                                    140.0
 PW_GRID| spherical cutoff:                                                   NO
 PW_GRID|   Bounds   1            -54      53                Points:         108
 PW_GRID|   Bounds   2            -54      53                Points:         108
 PW_GRID|   Bounds   3            -54      53                Points:         108
 PW_GRID| Volume element (a.u.^3)  0.5357E-02     Volume (a.u.^3)      6748.3346
 PW_GRID| Grid span                                                    FULLSPACE

 PW_GRID| Information for grid number                                          2
 PW_GRID| Number of the reference grid                                         1
 PW_GRID| Cutoff [a.u.]                                                     46.7
 PW_GRID| spherical cutoff:                                                   NO
 PW_GRID|   Bounds   1            -30      29                Points:          60
 PW_GRID|   Bounds   2            -30      29                Points:          60
 PW_GRID|   Bounds   3            -30      29                Points:          60
 PW_GRID| Volume element (a.u.^3)  0.3124E-01     Volume (a.u.^3)      6748.3346
 PW_GRID| Grid span                                                    FULLSPACE

 PW_GRID| Information for grid number                                          3
 PW_GRID| Number of the reference grid                                         1
 PW_GRID| Cutoff [a.u.]                                                     15.6
 PW_GRID| spherical cutoff:                                                   NO
 PW_GRID|   Bounds   1            -18      17                Points:          36
 PW_GRID|   Bounds   2            -18      17                Points:          36
 PW_GRID|   Bounds   3            -18      17                Points:          36
 PW_GRID| Volume element (a.u.^3)  0.1446         Volume (a.u.^3)      6748.3346
 PW_GRID| Grid span                                                    FULLSPACE

 PW_GRID| Information for grid number                                          4
 PW_GRID| Number of the reference grid                                         1
 PW_GRID| Cutoff [a.u.]                                                      5.2
 PW_GRID| spherical cutoff:                                                   NO
 PW_GRID|   Bounds   1            -10       9                Points:          20
 PW_GRID|   Bounds   2            -10       9                Points:          20
 PW_GRID|   Bounds   3            -10       9                Points:          20
 PW_GRID| Volume element (a.u.^3)  0.8435         Volume (a.u.^3)      6748.3346
 PW_GRID| Grid span                                                    FULLSPACE

 POISSON| Solver                                                        PERIODIC
 POISSON| Periodicity                                                        XYZ

 RS_GRID| Information for grid number                                          1
 RS_GRID|   Bounds   1            -54      53                Points:         108
 RS_GRID|   Bounds   2            -54      53                Points:         108
 RS_GRID|   Bounds   3            -54      53                Points:         108

 RS_GRID| Information for grid number                                          2
 RS_GRID|   Bounds   1            -30      29                Points:          60
 RS_GRID|   Bounds   2            -30      29                Points:          60
 RS_GRID|   Bounds   3            -30      29                Points:          60

 RS_GRID| Information for grid number                                          3
 RS_GRID|   Bounds   1            -18      17                Points:          36
 RS_GRID|   Bounds   2            -18      17                Points:          36
 RS_GRID|   Bounds   3            -18      17                Points:          36

 RS_GRID| Information for grid number                                          4
 RS_GRID|   Bounds   1            -10       9                Points:          20
 RS_GRID|   Bounds   2            -10       9                Points:          20
 RS_GRID|   Bounds   3            -10       9                Points:          20

 BFGS| Use rational function optimization for step estimation:                NO
 BFGS| Use model Hessian for initial guess:                                  YES
 BFGS| Restart Hessian:                                                       NO
 BFGS| Trust radius:                                                       0.472

 *******************************************************************************
 ***                     STARTING GEOMETRY OPTIMIZATION                      ***
 ***                                   BFGS                                  ***
 *******************************************************************************

 Extrapolation method: initial_guess

 Atomic guess: The first density matrix is obtained in terms of atomic orbitals
               and electronic configurations assigned to each atomic kind

 Guess for atomic kind: O

 Electronic structure
    Total number of core electrons                                          2.00
    Total number of valence electrons                                       6.00
    Total number of electrons                                               8.00
    Multiplicity                                                   not specified
    S   [  2.00] 2.00
    P      4.00


 *******************************************************************************
                  Iteration          Convergence                     Energy [au]
 *******************************************************************************
                          1        0.702811                     -15.577904332270
                          2        0.612408                     -15.588447180504
                          3        0.955344E-02                 -15.655871208406
                          4        0.223754E-02                 -15.655885053552
                          5        0.157183E-02                 -15.655885461027
                          6        0.124953E-02                 -15.655885607150
                          7        0.312011E-06                 -15.655885858066

 Energy components [Hartree]           Total Energy ::          -15.655885858066
                                        Band Energy ::           -2.983128125584
                                     Kinetic Energy ::           11.754765134683
                                   Potential Energy ::          -27.410650992750
                                      Virial (-V/T) ::            2.331875684345
                                        Core Energy ::          -26.153522949072
                                          XC Energy ::           -3.157392363346
                                     Coulomb Energy ::           13.655029454351
                       Total Pseudopotential Energy ::          -37.943026860963
                       Local Pseudopotential Energy ::          -39.220419683052
                    Nonlocal Pseudopotential Energy ::            1.277392822089
                                        Confinement ::            0.347387772086

 Orbital energies  State     L     Occupation   Energy[a.u.]          Energy[eV]

                       1     0          2.000      -0.861522          -23.443215

                       1     1          4.000      -0.315021           -8.572154


 Total Electron Density at R=0:                                         0.000093

 Guess for atomic kind: H

 Electronic structure
    Total number of core electrons                                          0.00
    Total number of valence electrons                                       1.00
    Total number of electrons                                               1.00
    Multiplicity                                                   not specified
    S      1.00


 *******************************************************************************
                  Iteration          Convergence                     Energy [au]
 *******************************************************************************
                          1        0.250972E-02                  -0.375256815885
                          2        0.570752E-04                  -0.375258666164
                          3        0.832405E-09                  -0.375258667122

 Energy components [Hartree]           Total Energy ::           -0.375258667122
                                        Band Energy ::           -0.076317618391
                                     Kinetic Energy ::            0.771356566341
                                   Potential Energy ::           -1.146615233463
                                      Virial (-V/T) ::            1.486491829455
                                        Core Energy ::           -0.456090715790
                                          XC Energy ::           -0.314218627334
                                     Coulomb Energy ::            0.395050676003
                       Total Pseudopotential Energy ::           -1.238482237174
                       Local Pseudopotential Energy ::           -1.238482237174
                    Nonlocal Pseudopotential Energy ::            0.000000000000
                                        Confinement ::            0.110349550431

 Orbital energies  State     L     Occupation   Energy[a.u.]          Energy[eV]

                       1     0          1.000      -0.076318           -2.076708


 Total Electron Density at R=0:                                         0.425022
 Re-scaling the density matrix to get the right number of electrons
                  # Electrons              Trace(P)               Scaling factor
                            8                 8.000                        1.000

 Number of electrons:                                                          8
 Number of occupied orbitals:                                                  4
 Number of molecular orbitals:                                                 4

 Number of orbital functions:                                                 23
 Number of independent orbital functions:                                     23


 SCF WAVEFUNCTION OPTIMIZATION

  Step     Update method      Time    Convergence         Total energy    Change
  ------------------------------------------------------------------------------
     1 P_Mix/Diag. 0.40E+00    0.2     0.80076779       -16.8865214739 -1.69E+01
     2 P_Mix/Diag. 0.40E+00    0.2     0.40749832       -17.0051325114 -1.19E-01
     3 P_Mix/Diag. 0.40E+00    0.2     0.24665462       -17.0775504826 -7.24E-02
     4 P_Mix/Diag. 0.40E+00    0.2     0.15743166       -17.1205256120 -4.30E-02
     5 P_Mix/Diag. 0.40E+00    0.2     0.09616369       -17.1461352852 -2.56E-02
     6 DIIS/Diag.  0.30E-02    0.2     0.06045309       -17.1614510191 -1.53E-02
     7 DIIS/Diag.  0.18E-03    0.2     0.00018547       -17.1843770953 -2.29E-02
     8 DIIS/Diag.  0.19E-03    0.2     0.00012464       -17.1843771100 -1.47E-08
     9 DIIS/Diag.  0.78E-04    0.2     0.00004887       -17.1843771271 -1.71E-08
    10 DIIS/Diag.  0.24E-04    0.2     0.00001491       -17.1843771294 -2.32E-09
    11 DIIS/Diag.  0.64E-05    0.2     0.00000404       -17.1843771296 -1.87E-10

  *** SCF run converged in    11 steps ***


  Electronic density on regular grids:         -7.9999998773        0.0000001227
  Core density on regular grids:                7.9999999998       -0.0000000002
  Total charge density on r-space grids:        0.0000001225
  Total charge density g-space grids:           0.0000001225

  Overlap energy of the core charge distribution:               0.00000004434220
  Self energy of the core charge distribution:                -44.34715499673765
  Core Hamiltonian energy:                                     12.65874617431874
  Hartree energy:                                              18.65187336933817
  Exchange-correlation energy:                                 -4.14784172088463

  Total energy:                                               -17.18437712962316

 !-----------------------------------------------------------------------------!
                     Mulliken Population Analysis

 #  Atom  Element  Kind  Atomic population                           Net charge
       1     O        1          6.371422                             -0.371422
       2     H        2          0.750790                              0.249210
       3     H        2          0.877788                              0.122212
 # Total charge                              8.000000                 -0.000000

 !-----------------------------------------------------------------------------!

 !-----------------------------------------------------------------------------!
                           Hirshfeld Charges

  #Atom  Element  Kind  Ref Charge     Population                    Net charge
      1       O      1       6.000          7.136                        -1.136
      2       H      2       1.000          0.414                         0.586
      3       H      2       1.000          0.437                         0.563

  Total Charge                                                            0.013
 !-----------------------------------------------------------------------------!

 ENERGY| Total FORCE_EVAL ( QS ) energy [hartree]            -17.184377129637049

 OPT| **************************************************************************
 OPT| Step number                                                              0
 OPT| Optimization method                                                   BFGS
 OPT| Total energy [hartree]                                      -17.1843771296
 OPT| Used time [s]                                                        2.068
 OPT| **************************************************************************

 --------------------------
 OPTIMIZATION STEP:      1
 --------------------------

 Parameters for the always stable predictor-corrector (ASPC) method:

  ASPC order: 0

  B(1) =   1.000000

 Extrapolation method: ASPC

 Number of electrons:                                                          8
 Number of occupied orbitals:                                                  4
 Number of molecular orbitals:                                                 4

 Number of orbital functions:                                                 23
 Number of independent orbital functions:                                     23


 SCF WAVEFUNCTION OPTIMIZATION

  Step     Update method      Time    Convergence         Total energy    Change
  ------------------------------------------------------------------------------
     1 P_Mix/Diag. 0.40E+00    0.1     0.08398232       -17.2072312518 -1.72E+01
     2 P_Mix/Diag. 0.40E+00    0.2     0.04720145       -17.2097126177 -2.48E-03
     3 DIIS/Diag.  0.43E-02    0.2     0.02794849       -17.2111656823 -1.45E-03
     4 DIIS/Diag.  0.33E-02    0.2     0.00429257       -17.2133110153 -2.15E-03
     5 DIIS/Diag.  0.12E-01    0.2     0.00479201       -17.2132521523  5.89E-05
     6 DIIS/Diag.  0.50E-02    0.2     0.00142998       -17.2133062009 -5.40E-05
     7 DIIS/Diag.  0.79E-04    0.2     0.00003564       -17.2133171642 -1.10E-05
     8 DIIS/Diag.  0.96E-05    0.2     0.00001209       -17.2133171658 -1.69E-09
     9 DIIS/Diag.  0.12E-04    0.2     0.00000684       -17.2133171658  2.11E-11

  *** SCF run converged in     9 steps ***


  Electronic density on regular grids:         -8.0000000013       -0.0000000013
  Core density on regular grids:                7.9999999997       -0.0000000003
  Total charge density on r-space grids:       -0.0000000016
  Total charge density g-space grids:          -0.0000000016

  Overlap energy of the core charge distribution:               0.00000001407404
  Self energy of the core charge distribution:                -44.34715499673765
  Core Hamiltonian energy:                                     12.73185754419253
  Hartree energy:                                              18.58053062215638
  Exchange-correlation energy:                                 -4.17855034951226

  Total energy:                                               -17.21331716582696

 !-----------------------------------------------------------------------------!
                     Mulliken Population Analysis

 #  Atom  Element  Kind  Atomic population                           Net charge
       1     O        1          6.296240                             -0.296240
       2     H        2          0.831223                              0.168777
       3     H        2          0.872537                              0.127463
 # Total charge                              8.000000                 -0.000000

 !-----------------------------------------------------------------------------!

 !-----------------------------------------------------------------------------!
                           Hirshfeld Charges

  #Atom  Element  Kind  Ref Charge     Population                    Net charge
      1       O      1       6.000          7.115                        -1.115
      2       H      2       1.000          0.432                         0.568
      3       H      2       1.000          0.441                         0.559

  Total Charge                                                            0.012
 !-----------------------------------------------------------------------------!

 ENERGY| Total FORCE_EVAL ( QS ) energy [hartree]            -17.213317165877246

 OPT| **************************************************************************
 OPT| Step number                                                              1
 OPT| Optimization method                                                   BFGS
 OPT| Total energy [hartree]                                      -17.2133171659
 OPT| Effective energy change [hartree]                            -0.0289400362
 OPT| Predicted energy change [hartree]                            -0.0234108710
 OPT| Scaling factor                                                0.0000000000
 OPT| Step size                                                     0.2792890638
 OPT| Trust radius                                                  0.4724315332
 OPT| Decrease in energy                                                     YES
 OPT| Used time [s]                                                        1.656
 OPT|
 OPT| Maximum step size                                             0.2792890638
 OPT| Convergence limit for maximum step size                       0.0030000000
 OPT| Maximum step size is converged                                          NO
 OPT|
 OPT| RMS step size                                                 0.1529647739
 OPT| Convergence limit for RMS step size                           0.0015000000
 OPT| RMS step size is converged                                              NO
 OPT|
 OPT| Maximum gradient                                              0.0620664092
 OPT| Convergence limit for maximum gradient                        0.0004500000
 OPT| Maximum gradient is converged                                           NO
 OPT|
 OPT| RMS gradient                                                  0.0301807519
 OPT| Convergence limit for RMS gradient                            0.0003000000
 OPT| RMS gradient is converged                                               NO
 OPT| **************************************************************************

 --------------------------
 OPTIMIZATION STEP:      2
 --------------------------

 Parameters for the always stable predictor-corrector (ASPC) method:

  ASPC order: 0

  B(1) =   2.000000
  B(2) =  -1.000000

 Extrapolation method: ASPC

 Number of electrons:                                                          8
 Number of occupied orbitals:                                                  4
 Number of molecular orbitals:                                                 4

 Number of orbital functions:                                                 23
 Number of independent orbital functions:                                     23


 SCF WAVEFUNCTION OPTIMIZATION

  Step     Update method      Time    Convergence         Total energy    Change
  ------------------------------------------------------------------------------
     1 P_Mix/Diag. 0.40E+00    0.1     0.12227914       -17.1920408006 -1.72E+01
     2 P_Mix/Diag. 0.40E+00    0.2     0.09509417       -17.1969584116 -4.92E-03
     3 DIIS/Diag.  0.37E-02    0.2     0.05454886       -17.1999447471 -2.99E-03
     4 DIIS/Diag.  0.24E-02    0.2     0.00183881       -17.2044134798 -4.47E-03
     5 DIIS/Diag.  0.53E-02    0.2     0.00177084       -17.2044065841  6.90E-06
     6 DIIS/Diag.  0.24E-02    0.2     0.00146068       -17.2044131994 -6.62E-06
     7 DIIS/Diag.  0.37E-04    0.2     0.00003209       -17.2044150890 -1.89E-06
     8 DIIS/Diag.  0.19E-04    0.2     0.00001088       -17.2044150895 -5.28E-10
     9 DIIS/Diag.  0.10E-05    0.2     0.00000060       -17.2044150896 -1.27E-10

  *** SCF run converged in     9 steps ***


  Electronic density on regular grids:         -8.0000000244       -0.0000000244
  Core density on regular grids:                7.9999999998       -0.0000000002
  Total charge density on r-space grids:       -0.0000000246
  Total charge density g-space grids:          -0.0000000246

  Overlap energy of the core charge distribution:               0.00000113202610
  Self energy of the core charge distribution:                -44.34715499673765
  Core Hamiltonian energy:                                     13.09022762854320
  Hartree energy:                                              18.32929699734020
  Exchange-correlation energy:                                 -4.27678585078725

  Total energy:                                               -17.20441508961540

 !-----------------------------------------------------------------------------!
                     Mulliken Population Analysis

 #  Atom  Element  Kind  Atomic population                           Net charge
       1     O        1          6.185870                             -0.185870
       2     H        2          0.938774                              0.061226
       3     H        2          0.875356                              0.124644
 # Total charge                              8.000000                  0.000000

 !-----------------------------------------------------------------------------!

 !-----------------------------------------------------------------------------!
                           Hirshfeld Charges

  #Atom  Element  Kind  Ref Charge     Population                    Net charge
      1       O      1       6.000          7.086                        -1.086
      2       H      2       1.000          0.467                         0.533
      3       H      2       1.000          0.436                         0.564

  Total Charge                                                            0.010
 !-----------------------------------------------------------------------------!

 ENERGY| Total FORCE_EVAL ( QS ) energy [hartree]            -17.204415089615804

 OPT| **************************************************************************
 OPT| Step number                                                              2
 OPT| Optimization method                                                   BFGS
 OPT| Total energy [hartree]                                      -17.2044150896
 OPT| Effective energy change [hartree]                             0.0089020763
 OPT| Predicted energy change [hartree]                            -0.0125483787
 OPT| Scaling factor                                                0.0000000000
 OPT| Step size                                                     0.1901833204
 OPT| Trust radius                                                  0.4724315332
 OPT| Decrease in energy                                                      NO
 OPT| Used time [s]                                                        1.672
 OPT|
 OPT| Maximum step size                                             0.1901833204
 OPT| Convergence limit for maximum step size                       0.0030000000
 OPT| Maximum step size is converged                                          NO
 OPT|
 OPT| RMS step size                                                 0.0965545006
 OPT| Convergence limit for RMS step size                           0.0015000000
 OPT| RMS step size is converged                                              NO
 OPT|
 OPT| Maximum gradient                                              0.1641395526
 OPT| Convergence limit for maximum gradient                        0.0004500000
 OPT| Maximum gradient is converged                                           NO
 OPT|
 OPT| RMS gradient                                                  0.0772794784
 OPT| Convergence limit for RMS gradient                            0.0003000000
 OPT| RMS gradient is converged                                               NO
 OPT| **************************************************************************

 --------------------------
 OPTIMIZATION STEP:      3
 --------------------------

 Parameters for the always stable predictor-corrector (ASPC) method:

  ASPC order: 1

  B(1) =   2.500000
  B(2) =  -2.000000
  B(3) =   0.500000

 Extrapolation method: ASPC

 Number of electrons:                                                          8
 Number of occupied orbitals:                                                  4
 Number of molecular orbitals:                                                 4

 Number of orbital functions:                                                 23
 Number of independent orbital functions:                                     23


 SCF WAVEFUNCTION OPTIMIZATION

  Step     Update method      Time    Convergence         Total energy    Change
  ------------------------------------------------------------------------------
     1 P_Mix/Diag. 0.40E+00    0.1     0.24960111       -17.1646093878 -1.72E+01
     2 P_Mix/Diag. 0.40E+00    0.2     0.15398850       -17.1860294453 -2.14E-02
     3 P_Mix/Diag. 0.40E+00    0.2     0.09408612       -17.1992367719 -1.32E-02
     4 DIIS/Diag.  0.36E-02    0.2     0.05748064       -17.2071375888 -7.90E-03
     5 DIIS/Diag.  0.28E-02    0.2     0.00151040       -17.2189626060 -1.18E-02
     6 DIIS/Diag.  0.91E-02    0.2     0.00211551       -17.2189489778  1.36E-05
     7 DIIS/Diag.  0.44E-03    0.2     0.00033525       -17.2189639635 -1.50E-05
     8 DIIS/Diag.  0.23E-03    0.2     0.00012109       -17.2189640215 -5.80E-08
     9 DIIS/Diag.  0.90E-05    0.2     0.00000592       -17.2189640427 -2.12E-08

  *** SCF run converged in     9 steps ***


  Electronic density on regular grids:         -8.0000001080       -0.0000001080
  Core density on regular grids:                7.9999999997       -0.0000000003
  Total charge density on r-space grids:       -0.0000001083
  Total charge density g-space grids:          -0.0000001083

  Overlap energy of the core charge distribution:               0.00000002796987
  Self energy of the core charge distribution:                -44.34715499673765
  Core Hamiltonian energy:                                     12.83082519992271
  Hartree energy:                                              18.50427089133141
  Exchange-correlation energy:                                 -4.20690516517096

  Total energy:                                               -17.21896404268462

 !-----------------------------------------------------------------------------!
                     Mulliken Population Analysis

 #  Atom  Element  Kind  Atomic population                           Net charge
       1     O        1          6.267331                             -0.267331
       2     H        2          0.857875                              0.142125
       3     H        2          0.874793                              0.125207
 # Total charge                              8.000000                 -0.000000

 !-----------------------------------------------------------------------------!

 !-----------------------------------------------------------------------------!
                           Hirshfeld Charges

  #Atom  Element  Kind  Ref Charge     Population                    Net charge
      1       O      1       6.000          7.117                        -1.117
      2       H      2       1.000          0.434                         0.566
      3       H      2       1.000          0.439                         0.561

  Total Charge                                                            0.011
 !-----------------------------------------------------------------------------!

 ENERGY| Total FORCE_EVAL ( QS ) energy [hartree]            -17.218964042720295

 OPT| **************************************************************************
 OPT| Step number                                                              3
 OPT| Optimization method                                                   BFGS
 OPT| Total energy [hartree]                                      -17.2189640427
 OPT| Effective energy change [hartree]                            -0.0145489531
 OPT| Predicted energy change [hartree]                            -0.0222026430
 OPT| Scaling factor                                                0.0000000000
 OPT| Step size                                                     0.1661591285
 OPT| Trust radius                                                  0.4724315332
 OPT| Decrease in energy                                                     YES
 OPT| Used time [s]                                                        1.681
 OPT|
 OPT| Maximum step size                                             0.1661591285
 OPT| Convergence limit for maximum step size                       0.0030000000
 OPT| Maximum step size is converged                                          NO
 OPT|
 OPT| RMS step size                                                 0.0693633339
 OPT| Convergence limit for RMS step size                           0.0015000000
 OPT| RMS step size is converged                                              NO
 OPT|
 OPT| Maximum gradient                                              0.0267394543
 OPT| Convergence limit for maximum gradient                        0.0004500000
 OPT| Maximum gradient is converged                                           NO
 OPT|
 OPT| RMS gradient                                                  0.0122426912
 OPT| Convergence limit for RMS gradient                            0.0003000000
 OPT| RMS gradient is converged                                               NO
 OPT| **************************************************************************

 --------------------------
 OPTIMIZATION STEP:      4
 --------------------------

 Parameters for the always stable predictor-corrector (ASPC) method:

  ASPC order: 2

  B(1) =   2.800000
  B(2) =  -2.800000
  B(3) =   1.200000
  B(4) =  -0.200000

 Extrapolation method: ASPC

 Number of electrons:                                                          8
 Number of occupied orbitals:                                                  4
 Number of molecular orbitals:                                                 4

 Number of orbital functions:                                                 23
 Number of independent orbital functions:                                     23


 SCF WAVEFUNCTION OPTIMIZATION

  Step     Update method      Time    Convergence         Total energy    Change
  ------------------------------------------------------------------------------
     1 P_Mix/Diag. 0.40E+00    0.1     0.33033903       -17.1537757621 -1.72E+01
     2 P_Mix/Diag. 0.40E+00    0.2     0.16626352       -17.1796203957 -2.58E-02
     3 P_Mix/Diag. 0.40E+00    0.2     0.10145322       -17.1957078116 -1.61E-02
     4 P_Mix/Diag. 0.40E+00    0.2     0.06162662       -17.2053181848 -9.61E-03
     5 DIIS/Diag.  0.24E-02    0.2     0.03746255       -17.2110670297 -5.75E-03
     6 DIIS/Diag.  0.14E-02    0.2     0.00129254       -17.2196725905 -8.61E-03
     7 DIIS/Diag.  0.66E-02    0.2     0.00158448       -17.2196650314  7.56E-06
     8 DIIS/Diag.  0.50E-04    0.2     0.00003430       -17.2196729431 -7.91E-06
     9 DIIS/Diag.  0.14E-04    0.2     0.00001452       -17.2196729439 -8.17E-10
    10 DIIS/Diag.  0.13E-04    0.2     0.00000653       -17.2196729439 -3.16E-11

  *** SCF run converged in    10 steps ***


  Electronic density on regular grids:         -8.0000001117       -0.0000001117
  Core density on regular grids:                7.9999999997       -0.0000000003
  Total charge density on r-space grids:       -0.0000001120
  Total charge density g-space grids:          -0.0000001120

  Overlap energy of the core charge distribution:               0.00000003537028
  Self energy of the core charge distribution:                -44.34715499673765
  Core Hamiltonian energy:                                     12.85984374941701
  Hartree energy:                                              18.48304201785193
  Exchange-correlation energy:                                 -4.21540374983388

  Total energy:                                               -17.21967294393231

 !-----------------------------------------------------------------------------!
                     Mulliken Population Analysis

 #  Atom  Element  Kind  Atomic population                           Net charge
       1     O        1          6.255151                             -0.255151
       2     H        2          0.869562                              0.130438
       3     H        2          0.875287                              0.124713
 # Total charge                              8.000000                 -0.000000

 !-----------------------------------------------------------------------------!

 !-----------------------------------------------------------------------------!
                           Hirshfeld Charges

  #Atom  Element  Kind  Ref Charge     Population                    Net charge
      1       O      1       6.000          7.113                        -1.113
      2       H      2       1.000          0.437                         0.563
      3       H      2       1.000          0.439                         0.561

  Total Charge                                                            0.011
 !-----------------------------------------------------------------------------!

 ENERGY| Total FORCE_EVAL ( QS ) energy [hartree]            -17.219672943991242

 OPT| **************************************************************************
 OPT| Step number                                                              4
 OPT| Optimization method                                                   BFGS
 OPT| Total energy [hartree]                                      -17.2196729440
 OPT| Effective energy change [hartree]                            -0.0007089013
 OPT| Predicted energy change [hartree]                            -0.0005180996
 OPT| Scaling factor                                                0.0000000000
 OPT| Step size                                                     0.0288854456
 OPT| Trust radius                                                  0.4724315332
 OPT| Decrease in energy                                                     YES
 OPT| Used time [s]                                                        1.827
 OPT|
 OPT| Maximum step size                                             0.0288854456
 OPT| Convergence limit for maximum step size                       0.0030000000
 OPT| Maximum step size is converged                                          NO
 OPT|
 OPT| RMS step size                                                 0.0122035193
 OPT| Convergence limit for RMS step size                           0.0015000000
 OPT| RMS step size is converged                                              NO
 OPT|
 OPT| Maximum gradient                                              0.0097293231
 OPT| Convergence limit for maximum gradient                        0.0004500000
 OPT| Maximum gradient is converged                                           NO
 OPT|
 OPT| RMS gradient                                                  0.0044798860
 OPT| Convergence limit for RMS gradient                            0.0003000000
 OPT| RMS gradient is converged                                               NO
 OPT| **************************************************************************

 --------------------------
 OPTIMIZATION STEP:      5
 --------------------------

 Parameters for the always stable predictor-corrector (ASPC) method:

  ASPC order: 3

  B(1) =   3.000000
  B(2) =  -3.428571
  B(3) =   1.928571
  B(4) =  -0.571429
  B(5) =   0.071429

 Extrapolation method: ASPC

 Number of electrons:                                                          8
 Number of occupied orbitals:                                                  4
 Number of molecular orbitals:                                                 4

 Number of orbital functions:                                                 23
 Number of independent orbital functions:                                     23


 SCF WAVEFUNCTION OPTIMIZATION

  Step     Update method      Time    Convergence         Total energy    Change
  ------------------------------------------------------------------------------
     1 P_Mix/Diag. 0.40E+00    0.1     0.20154238       -17.1877378454 -1.72E+01
     2 P_Mix/Diag. 0.40E+00    0.2     0.11088707       -17.2004398451 -1.27E-02
     3 P_Mix/Diag. 0.40E+00    0.2     0.06784153       -17.2082128719 -7.77E-03
     4 DIIS/Diag.  0.32E-02    0.2     0.04170515       -17.2128465195 -4.63E-03
     5 DIIS/Diag.  0.25E-02    0.2     0.00144126       -17.2197685355 -6.92E-03
     6 DIIS/Diag.  0.82E-02    0.2     0.00196573       -17.2197579510  1.06E-05
     7 DIIS/Diag.  0.30E-03    0.2     0.00022545       -17.2197695240 -1.16E-05
     8 DIIS/Diag.  0.15E-03    0.2     0.00008105       -17.2197695545 -3.04E-08
     9 DIIS/Diag.  0.72E-05    0.2     0.00000324       -17.2197695635 -9.03E-09

  *** SCF run converged in     9 steps ***


  Electronic density on regular grids:         -8.0000001111       -0.0000001111
  Core density on regular grids:                7.9999999998       -0.0000000002
  Total charge density on r-space grids:       -0.0000001113
  Total charge density g-space grids:          -0.0000001113

  Overlap energy of the core charge distribution:               0.00000004339522
  Self energy of the core charge distribution:                -44.34715499673765
  Core Hamiltonian energy:                                     12.87877461903562
  Hartree energy:                                              18.46938199614591
  Exchange-correlation energy:                                 -4.22077122535775

  Total energy:                                               -17.21976956351865

 !-----------------------------------------------------------------------------!
                     Mulliken Population Analysis

 #  Atom  Element  Kind  Atomic population                           Net charge
       1     O        1          6.248157                             -0.248157
       2     H        2          0.876190                              0.123810
       3     H        2          0.875653                              0.124347
 # Total charge                              8.000000                 -0.000000

 !-----------------------------------------------------------------------------!

 !-----------------------------------------------------------------------------!
                           Hirshfeld Charges

  #Atom  Element  Kind  Ref Charge     Population                    Net charge
      1       O      1       6.000          7.111                        -1.111
      2       H      2       1.000          0.439                         0.561
      3       H      2       1.000          0.439                         0.561

  Total Charge                                                            0.011
 !-----------------------------------------------------------------------------!

 ENERGY| Total FORCE_EVAL ( QS ) energy [hartree]            -17.219769563543643

 OPT| **************************************************************************
 OPT| Step number                                                              5
 OPT| Optimization method                                                   BFGS
 OPT| Total energy [hartree]                                      -17.2197695635
 OPT| Effective energy change [hartree]                            -0.0000966196
 OPT| Predicted energy change [hartree]                            -0.0001067288
 OPT| Scaling factor                                                0.0000000000
 OPT| Step size                                                     0.0159141673
 OPT| Trust radius                                                  0.4724315332
 OPT| Decrease in energy                                                     YES
 OPT| Used time [s]                                                        1.670
 OPT|
 OPT| Maximum step size                                             0.0159141673
 OPT| Convergence limit for maximum step size                       0.0030000000
 OPT| Maximum step size is converged                                          NO
 OPT|
 OPT| RMS step size                                                 0.0062969995
 OPT| Convergence limit for RMS step size                           0.0015000000
 OPT| RMS step size is converged                                              NO
 OPT|
 OPT| Maximum gradient                                              0.0015391125
 OPT| Convergence limit for maximum gradient                        0.0004500000
 OPT| Maximum gradient is converged                                           NO
 OPT|
 OPT| RMS gradient                                                  0.0006090532
 OPT| Convergence limit for RMS gradient                            0.0003000000
 OPT| RMS gradient is converged                                               NO
 OPT| **************************************************************************

 --------------------------
 OPTIMIZATION STEP:      6
 --------------------------

 Parameters for the always stable predictor-corrector (ASPC) method:

  ASPC order: 3

  B(1) =   3.000000
  B(2) =  -3.428571
  B(3) =   1.928571
  B(4) =  -0.571429
  B(5) =   0.071429

 Extrapolation method: ASPC

 Number of electrons:                                                          8
 Number of occupied orbitals:                                                  4
 Number of molecular orbitals:                                                 4

 Number of orbital functions:                                                 23
 Number of independent orbital functions:                                     23


 SCF WAVEFUNCTION OPTIMIZATION

  Step     Update method      Time    Convergence         Total energy    Change
  ------------------------------------------------------------------------------
     1 P_Mix/Diag. 0.40E+00    0.1     0.05876731       -17.2173954967 -1.72E+01
     2 P_Mix/Diag. 0.40E+00    0.2     0.02862489       -17.2183360483 -9.41E-04
     3 DIIS/Diag.  0.35E-02    0.2     0.01750281       -17.2189139650 -5.78E-04
     4 DIIS/Diag.  0.26E-02    0.2     0.00016523       -17.2197703583 -8.56E-04
     5 DIIS/Diag.  0.23E-02    0.2     0.00034589       -17.2197708226 -4.64E-07
     6 DIIS/Diag.  0.33E-02    0.2     0.00149521       -17.2197693941  1.43E-06
     7 DIIS/Diag.  0.46E-04    0.2     0.00002461       -17.2197722843 -2.89E-06
     8 DIIS/Diag.  0.16E-04    0.2     0.00001532       -17.2197722849 -5.94E-10
     9 DIIS/Diag.  0.14E-04    0.2     0.00000718       -17.2197722849 -2.15E-11

  *** SCF run converged in     9 steps ***


  Electronic density on regular grids:         -8.0000001137       -0.0000001137
  Core density on regular grids:                7.9999999998       -0.0000000002
  Total charge density on r-space grids:       -0.0000001139
  Total charge density g-space grids:          -0.0000001139

  Overlap energy of the core charge distribution:               0.00000004246529
  Self energy of the core charge distribution:                -44.34715499673765
  Core Hamiltonian energy:                                     12.87687941490342
  Hartree energy:                                              18.47074792367999
  Exchange-correlation energy:                                 -4.22024466918411

  Total energy:                                               -17.21977228487306

 !-----------------------------------------------------------------------------!
                     Mulliken Population Analysis

 #  Atom  Element  Kind  Atomic population                           Net charge
       1     O        1          6.248802                             -0.248802
       2     H        2          0.875557                              0.124443
       3     H        2          0.875641                              0.124359
 # Total charge                              8.000000                  0.000000

 !-----------------------------------------------------------------------------!

 !-----------------------------------------------------------------------------!
                           Hirshfeld Charges

  #Atom  Element  Kind  Ref Charge     Population                    Net charge
      1       O      1       6.000          7.111                        -1.111
      2       H      2       1.000          0.439                         0.561
      3       H      2       1.000          0.439                         0.561

  Total Charge                                                            0.011
 !-----------------------------------------------------------------------------!

 ENERGY| Total FORCE_EVAL ( QS ) energy [hartree]            -17.219772284943001

 OPT| **************************************************************************
 OPT| Step number                                                              6
 OPT| Optimization method                                                   BFGS
 OPT| Total energy [hartree]                                      -17.2197722849
 OPT| Effective energy change [hartree]                            -0.0000027214
 OPT| Predicted energy change [hartree]                            -0.0000021135
 OPT| Scaling factor                                                0.0000000000
 OPT| Step size                                                     0.0031638009
 OPT| Trust radius                                                  0.4724315332
 OPT| Decrease in energy                                                     YES
 OPT| Used time [s]                                                        1.670
 OPT|
 OPT| Maximum step size                                             0.0031638009
 OPT| Convergence limit for maximum step size                       0.0030000000
 OPT| Maximum step size is converged                                          NO
 OPT|
 OPT| RMS step size                                                 0.0013163774
 OPT| Convergence limit for RMS step size                           0.0015000000
 OPT| RMS step size is converged                                             YES
 OPT|
 OPT| Maximum gradient                                              0.0002690174
 OPT| Convergence limit for maximum gradient                        0.0004500000
 OPT| Maximum gradient is converged                                          YES
 OPT|
 OPT| RMS gradient                                                  0.0001286700
 OPT| Convergence limit for RMS gradient                            0.0003000000
 OPT| RMS gradient is converged                                              YES
 OPT| **************************************************************************

 --------------------------
 OPTIMIZATION STEP:      7
 --------------------------

 Parameters for the always stable predictor-corrector (ASPC) method:

  ASPC order: 3

  B(1) =   3.000000
  B(2) =  -3.428571
  B(3) =   1.928571
  B(4) =  -0.571429
  B(5) =   0.071429

 Extrapolation method: ASPC

 Number of electrons:                                                          8
 Number of occupied orbitals:                                                  4
 Number of molecular orbitals:                                                 4

 Number of orbital functions:                                                 23
 Number of independent orbital functions:                                     23


 SCF WAVEFUNCTION OPTIMIZATION

  Step     Update method      Time    Convergence         Total energy    Change
  ------------------------------------------------------------------------------
     1 P_Mix/Diag. 0.40E+00    0.1     0.00312950       -17.2197684412 -1.72E+01
     2 P_Mix/Diag. 0.40E+00    0.2     0.00185102       -17.2197705965 -2.16E-06
     3 DIIS/Diag.  0.79E-04    0.2     0.00110155       -17.2197718735 -1.28E-06
     4 DIIS/Diag.  0.55E-04    0.2     0.00006858       -17.2197737768 -1.90E-06
     5 DIIS/Diag.  0.10E-03    0.2     0.00007351       -17.2197737741  2.70E-09
     6 DIIS/Diag.  0.75E-04    0.2     0.00003073       -17.2197737760 -1.97E-09
     7 DIIS/Diag.  0.13E-05    0.2     0.00000053       -17.2197737781 -2.06E-09

  *** SCF run converged in     7 steps ***


  Electronic density on regular grids:         -8.0000001158       -0.0000001158
  Core density on regular grids:                7.9999999997       -0.0000000003
  Total charge density on r-space grids:       -0.0000001161
  Total charge density g-space grids:          -0.0000001161

  Overlap energy of the core charge distribution:               0.00000004223785
  Self energy of the core charge distribution:                -44.34715499673765
  Core Hamiltonian energy:                                     12.87647057220450
  Hartree energy:                                              18.47103360761501
  Exchange-correlation energy:                                 -4.22012300342727

  Total energy:                                               -17.21977377810757

 !-----------------------------------------------------------------------------!
                     Mulliken Population Analysis

 #  Atom  Element  Kind  Atomic population                           Net charge
       1     O        1          6.248980                             -0.248980
       2     H        2          0.875377                              0.124623
       3     H        2          0.875643                              0.124357
 # Total charge                              8.000000                  0.000000

 !-----------------------------------------------------------------------------!

 !-----------------------------------------------------------------------------!
                           Hirshfeld Charges

  #Atom  Element  Kind  Ref Charge     Population                    Net charge
      1       O      1       6.000          7.111                        -1.111
      2       H      2       1.000          0.439                         0.561
      3       H      2       1.000          0.439                         0.561

  Total Charge                                                            0.011
 !-----------------------------------------------------------------------------!

 ENERGY| Total FORCE_EVAL ( QS ) energy [hartree]            -17.219773778108085

 OPT| **************************************************************************
 OPT| Step number                                                              7
 OPT| Optimization method                                                   BFGS
 OPT| Total energy [hartree]                                      -17.2197737781
 OPT| Effective energy change [hartree]                            -0.0000014932
 OPT| Predicted energy change [hartree]                            -0.0000010373
 OPT| Scaling factor                                                0.0000000000
 OPT| Step size                                                     0.0036409175
 OPT| Trust radius                                                  0.4724315332
 OPT| Decrease in energy                                                     YES
 OPT| Used time [s]                                                        1.339
 OPT|
 OPT| Maximum step size                                             0.0036409175
 OPT| Convergence limit for maximum step size                       0.0030000000
 OPT| Maximum step size is converged                                          NO
 OPT|
 OPT| RMS step size                                                 0.0020316690
 OPT| Convergence limit for RMS step size                           0.0015000000
 OPT| RMS step size is converged                                              NO
 OPT|
 OPT| Maximum gradient                                              0.0004042283
 OPT| Convergence limit for maximum gradient                        0.0004500000
 OPT| Maximum gradient is converged                                          YES
 OPT|
 OPT| RMS gradient                                                  0.0001515511
 OPT| Convergence limit for RMS gradient                            0.0003000000
 OPT| RMS gradient is converged                                              YES
 OPT| **************************************************************************

 --------------------------
 OPTIMIZATION STEP:      8
 --------------------------

 Parameters for the always stable predictor-corrector (ASPC) method:

  ASPC order: 3

  B(1) =   3.000000
  B(2) =  -3.428571
  B(3) =   1.928571
  B(4) =  -0.571429
  B(5) =   0.071429

 Extrapolation method: ASPC

 Number of electrons:                                                          8
 Number of occupied orbitals:                                                  4
 Number of molecular orbitals:                                                 4

 Number of orbital functions:                                                 23
 Number of independent orbital functions:                                     23


 SCF WAVEFUNCTION OPTIMIZATION

  Step     Update method      Time    Convergence         Total energy    Change
  ------------------------------------------------------------------------------
     1 P_Mix/Diag. 0.40E+00    0.1     0.00356610       -17.2197659631 -1.72E+01
     2 P_Mix/Diag. 0.40E+00    0.2     0.00195802       -17.2197695645 -3.60E-06
     3 DIIS/Diag.  0.21E-03    0.2     0.00114759       -17.2197717901 -2.23E-06
     4 DIIS/Diag.  0.15E-03    0.2     0.00001155       -17.2197750970 -3.31E-06
     5 DIIS/Diag.  0.17E-03    0.2     0.00001153       -17.2197750949  2.07E-09
     6 DIIS/Diag.  0.18E-03    0.2     0.00008323       -17.2197750944  5.40E-10
     7 DIIS/Diag.  0.20E-05    0.2     0.00000076       -17.2197751029 -8.56E-09

  *** SCF run converged in     7 steps ***


  Electronic density on regular grids:         -8.0000001166       -0.0000001166
  Core density on regular grids:                7.9999999997       -0.0000000003
  Total charge density on r-space grids:       -0.0000001169
  Total charge density g-space grids:          -0.0000001169

  Overlap energy of the core charge distribution:               0.00000004226725
  Self energy of the core charge distribution:                -44.34715499673765
  Core Hamiltonian energy:                                     12.87654245207263
  Hartree energy:                                              18.47097973871519
  Exchange-correlation energy:                                 -4.22014233924785

  Total energy:                                               -17.21977510293042

 !-----------------------------------------------------------------------------!
                     Mulliken Population Analysis

 #  Atom  Element  Kind  Atomic population                           Net charge
       1     O        1          6.248961                             -0.248961
       2     H        2          0.875398                              0.124602
       3     H        2          0.875641                              0.124359
 # Total charge                              8.000000                 -0.000000

 !-----------------------------------------------------------------------------!

 !-----------------------------------------------------------------------------!
                           Hirshfeld Charges

  #Atom  Element  Kind  Ref Charge     Population                    Net charge
      1       O      1       6.000          7.111                        -1.111
      2       H      2       1.000          0.439                         0.561
      3       H      2       1.000          0.439                         0.561

  Total Charge                                                            0.011
 !-----------------------------------------------------------------------------!

 ENERGY| Total FORCE_EVAL ( QS ) energy [hartree]            -17.219775102931408

 OPT| **************************************************************************
 OPT| Step number                                                              8
 OPT| Optimization method                                                   BFGS
 OPT| Total energy [hartree]                                      -17.2197751029
 OPT| Effective energy change [hartree]                            -0.0000013248
 OPT| Predicted energy change [hartree]                            -0.0000011484
 OPT| Scaling factor                                                0.0000000000
 OPT| Step size                                                     0.0063480772
 OPT| Trust radius                                                  0.4724315332
 OPT| Decrease in energy                                                     YES
 OPT| Used time [s]                                                        1.363
 OPT|
 OPT| Maximum step size                                             0.0063480772
 OPT| Convergence limit for maximum step size                       0.0030000000
 OPT| Maximum step size is converged                                          NO
 OPT|
 OPT| RMS step size                                                 0.0034385713
 OPT| Convergence limit for RMS step size                           0.0015000000
 OPT| RMS step size is converged                                              NO
 OPT|
 OPT| Maximum gradient                                              0.0003768233
 OPT| Convergence limit for maximum gradient                        0.0004500000
 OPT| Maximum gradient is converged                                          YES
 OPT|
 OPT| RMS gradient                                                  0.0001865060
 OPT| Convergence limit for RMS gradient                            0.0003000000
 OPT| RMS gradient is converged                                              YES
 OPT| **************************************************************************

 --------------------------
 OPTIMIZATION STEP:      9
 --------------------------

 Parameters for the always stable predictor-corrector (ASPC) method:

  ASPC order: 3

  B(1) =   3.000000
  B(2) =  -3.428571
  B(3) =   1.928571
  B(4) =  -0.571429
  B(5) =   0.071429

 Extrapolation method: ASPC

 Number of electrons:                                                          8
 Number of occupied orbitals:                                                  4
 Number of molecular orbitals:                                                 4

 Number of orbital functions:                                                 23
 Number of independent orbital functions:                                     23


 SCF WAVEFUNCTION OPTIMIZATION

  Step     Update method      Time    Convergence         Total energy    Change
  ------------------------------------------------------------------------------
     1 P_Mix/Diag. 0.40E+00    0.1     0.00179313       -17.2197734859 -1.72E+01
     2 P_Mix/Diag. 0.40E+00    0.2     0.00106233       -17.2197743203 -8.34E-07
     3 DIIS/Diag.  0.44E-04    0.2     0.00063521       -17.2197748246 -5.04E-07
     4 DIIS/Diag.  0.26E-04    0.2     0.00001042       -17.2197755800 -7.55E-07
     5 DIIS/Diag.  0.55E-04    0.2     0.00000905       -17.2197755792  7.63E-10

  *** SCF run converged in     5 steps ***


  Electronic density on regular grids:         -8.0000001156       -0.0000001156
  Core density on regular grids:                7.9999999997       -0.0000000003
  Total charge density on r-space grids:       -0.0000001158
  Total charge density g-space grids:          -0.0000001158

  Overlap energy of the core charge distribution:               0.00000004248966
  Self energy of the core charge distribution:                -44.34715499673765
  Core Hamiltonian energy:                                     12.87704528706766
  Hartree energy:                                              18.47061146731551
  Exchange-correlation energy:                                 -4.22027737934457

  Total energy:                                               -17.21977557920938

 !-----------------------------------------------------------------------------!
                     Mulliken Population Analysis

 #  Atom  Element  Kind  Atomic population                           Net charge
       1     O        1          6.248802                             -0.248802
       2     H        2          0.875548                              0.124452
       3     H        2          0.875650                              0.124350
 # Total charge                              8.000000                 -0.000000

 !-----------------------------------------------------------------------------!

 !-----------------------------------------------------------------------------!
                           Hirshfeld Charges

  #Atom  Element  Kind  Ref Charge     Population                    Net charge
      1       O      1       6.000          7.111                        -1.111
      2       H      2       1.000          0.439                         0.561
      3       H      2       1.000          0.439                         0.561

  Total Charge                                                            0.011
 !-----------------------------------------------------------------------------!

 ENERGY| Total FORCE_EVAL ( QS ) energy [hartree]            -17.219775579880910

 OPT| **************************************************************************
 OPT| Step number                                                              9
 OPT| Optimization method                                                   BFGS
 OPT| Total energy [hartree]                                      -17.2197755799
 OPT| Effective energy change [hartree]                            -0.0000004769
 OPT| Predicted energy change [hartree]                            -0.0000003257
 OPT| Scaling factor                                                0.0000000000
 OPT| Step size                                                     0.0019093499
 OPT| Trust radius                                                  0.4724315332
 OPT| Decrease in energy                                                     YES
 OPT| Used time [s]                                                        1.122
 OPT|
 OPT| Maximum step size                                             0.0019093499
 OPT| Convergence limit for maximum step size                       0.0030000000
 OPT| Maximum step size is converged                                         YES
 OPT|
 OPT| RMS step size                                                 0.0011085409
 OPT| Convergence limit for RMS step size                           0.0015000000
 OPT| RMS step size is converged                                             YES
 OPT|
 OPT| Maximum gradient                                              0.0001453724
 OPT| Convergence limit for maximum gradient                        0.0004500000
 OPT| Maximum gradient is converged                                          YES
 OPT|
 OPT| RMS gradient                                                  0.0000782835
 OPT| Convergence limit for RMS gradient                            0.0003000000
 OPT| RMS gradient is converged                                              YES
 OPT| **************************************************************************

 *******************************************************************************
 ***                    GEOMETRY OPTIMIZATION COMPLETED                      ***
 *******************************************************************************

 write_final_structure: Optimization converged, writing XYZ file gladly:
  H2O_POTENTIAL-FINAL-1_9.xyz

 write_final_structure: Optimization converged, writing CIF file gladly:
  H2O_POTENTIAL-FINAL-1_9.cif

 write_final_structure: Done!

                    Reevaluating energy at the minimum

 Parameters for the always stable predictor-corrector (ASPC) method:

  ASPC order: 3

  B(1) =   3.000000
  B(2) =  -3.428571
  B(3) =   1.928571
  B(4) =  -0.571429
  B(5) =   0.071429

 Extrapolation method: ASPC

 Number of electrons:                                                          8
 Number of occupied orbitals:                                                  4
 Number of molecular orbitals:                                                 4

 Number of orbital functions:                                                 23
 Number of independent orbital functions:                                     23


 SCF WAVEFUNCTION OPTIMIZATION

  Step     Update method      Time    Convergence         Total energy    Change
  ------------------------------------------------------------------------------
     1 P_Mix/Diag. 0.40E+00    0.1     0.00204150       -17.2197734469 -1.72E+01
     2 P_Mix/Diag. 0.40E+00    0.2     0.00121790       -17.2197743022 -8.55E-07
     3 DIIS/Diag.  0.19E-04    0.2     0.00072730       -17.2197748142 -5.12E-07
     4 DIIS/Diag.  0.24E-04    0.2     0.00001313       -17.2197755800 -7.66E-07
     5 DIIS/Diag.  0.51E-04    0.2     0.00001314       -17.2197755792  8.81E-10
     6 DIIS/Diag.  0.20E-04    0.2     0.00001014       -17.2197755800 -8.68E-10
     7 DIIS/Diag.  0.20E-06    0.2     0.00000012       -17.2197755802 -2.17E-10

  *** SCF run converged in     7 steps ***


  Electronic density on regular grids:         -8.0000001156       -0.0000001156
  Core density on regular grids:                7.9999999997       -0.0000000003
  Total charge density on r-space grids:       -0.0000001158
  Total charge density g-space grids:          -0.0000001158

  Overlap energy of the core charge distribution:               0.00000004248966
  Self energy of the core charge distribution:                -44.34715499673765
  Core Hamiltonian energy:                                     12.87700927291903
  Hartree energy:                                              18.47063969444732
  Exchange-correlation energy:                                 -4.22026959335698

  Total energy:                                               -17.21977558023862

 !-----------------------------------------------------------------------------!
                     Mulliken Population Analysis

 #  Atom  Element  Kind  Atomic population                           Net charge
       1     O        1          6.248824                             -0.248824
       2     H        2          0.875532                              0.124468
       3     H        2          0.875644                              0.124356
 # Total charge                              8.000000                 -0.000000

 !-----------------------------------------------------------------------------!

 !-----------------------------------------------------------------------------!
                           Hirshfeld Charges

  #Atom  Element  Kind  Ref Charge     Population                    Net charge
      1       O      1       6.000          7.111                        -1.111
      2       H      2       1.000          0.439                         0.561
      3       H      2       1.000          0.439                         0.561

  Total Charge                                                            0.011
 !-----------------------------------------------------------------------------!

 ENERGY| Total FORCE_EVAL ( QS ) energy [hartree]            -17.219775580238618

 -------------------------------------------------------------------------------
 -                                                                             -
 -                                DBCSR STATISTICS                             -
 -                                                                             -
 -------------------------------------------------------------------------------
 COUNTER                                    TOTAL       BLAS       SMM       ACC
 flops     5 x     4 x     5                24000     100.0%      0.0%      0.0%     
 flops    13 x     4 x     5                31200     100.0%      0.0%      0.0%     
 flops     5 x     4 x    13                31200     100.0%      0.0%      0.0%     
 flops    13 x     4 x    13                40560     100.0%      0.0%      0.0%     
 flops    13 x     5 x     4                58240     100.0%      0.0%      0.0%     
 flops     5 x    13 x     4                58240     100.0%      0.0%      0.0%     
 flops     5 x     5 x     4                67200     100.0%      0.0%      0.0%     
 flops    13 x    13 x     4               151424     100.0%      0.0%      0.0%     
 flops inhomo. stacks                           0       0.0%      0.0%      0.0%
 flops total                       462.064000E+03     100.0%      0.0%      0.0%
 flops max/rank                    462.064000E+03     100.0%      0.0%      0.0%
 matmuls inhomo. stacks                         0       0.0%      0.0%      0.0%
 matmuls total                                942     100.0%      0.0%      0.0%
 number of processed stacks                   740     100.0%      0.0%      0.0%
 average stack size                                     1.3       0.0       0.0
 marketing flops                   600.944000E+03
 -------------------------------------------------------------------------------
 # multiplications                            142
 max memory usage/rank               0.000000E+00
 # max total images/rank                        1
 # max 3D layers                                1
 # MPI messages exchanged                       0
 -------------------------------------------------------------------------------
 -                                                                             -
 -                      DBCSR MESSAGE PASSING PERFORMANCE                      -
 -                                                                             -
 -------------------------------------------------------------------------------
 ROUTINE             CALLS      AVE VOLUME [Bytes]
 MP_Bcast                9                     12.
 MP_Allreduce          685                      9.
 MP_Alltoall          3916                   1869.
 MP_ISend              568                     73.
 MP_IRecv              568                     73.
 -------------------------------------------------------------------------------

 -------------------------------------------------------------------------------
 -                                                                             -
 -                                GRID STATISTICS                              -
 -                                                                             -
 -------------------------------------------------------------------------------
 LP    KERNEL             BACKEND                              COUNT     PERCENT
 2     collocate ortho    CPU                                  10070      26.77%
 2     integrate ortho    CPU                                   8994      23.91%
 3     integrate ortho    CPU                                   6507      17.30%
 3     collocate ortho    CPU                                   6190      16.46%
 4     integrate ortho    CPU                                   2901       7.71%
 4     collocate ortho    CPU                                   2575       6.85%
 5     integrate ortho    CPU                                    250       0.66%
 0     collocate general  CPU                                     66       0.18%
 0     integrate general  CPU                                     33       0.09%
 1     integrate general  CPU                                     30       0.08%
 -------------------------------------------------------------------------------

 -------------------------------------------------------------------------------
 -                                                                             -
 -                          OFFLOAD MEMPOOL STATISTICS                         -
 -                                                                             -
 -------------------------------------------------------------------------------
 Memory consumption                Number of allocations  Used [MiB]  Size [MiB]
 Host                                                  6          12           0
 -------------------------------------------------------------------------------

 MEMORY| Estimated peak process memory [MiB]                                   0

 -------------------------------------------------------------------------------
 ----                             MULTIGRID INFO                            ----
 -------------------------------------------------------------------------------
 count for grid        1:           5313          cutoff [a.u.]          140.00
 count for grid        2:           1642          cutoff [a.u.]           46.67
 count for grid        3:           1054          cutoff [a.u.]           15.56
 count for grid        4:            563          cutoff [a.u.]            5.19
 total gridlevel count  :           8572

 -------------------------------------------------------------------------------
 -                                                                             -
 -                         MESSAGE PASSING PERFORMANCE                         -
 -                                                                             -
 -------------------------------------------------------------------------------

 ROUTINE             CALLS      AVE VOLUME [Bytes]
 MP_Group                4
 MP_Bcast              203                     89.
 MP_Allreduce         1551                     17.
 MP_Sync               106
 MP_comm_split         102
 -------------------------------------------------------------------------------


 -------------------------------------------------------------------------------
 -                                                                             -
 -                           R E F E R E N C E S                               -
 -                                                                             -
 -------------------------------------------------------------------------------
 
 CP2K version 2026.2, the CP2K developers group (2026).
 CP2K is freely available from https://www.cp2k.org/ .
 
 M. Iannuzzi, J. Wilhelm, F. Stein, A. Bussy, H. Elgabarty, D. Golze, A. Hehn, 
 M. Graml, S. Marek, B. Sertcan Gökmen, C. Schran, H. Forbert, R. Z. 
 Khaliullin, A. Kozhevnikov, M. Taillefumier, R. Meli, V. V. Rybkin, M. Brehm, 
 R. Schade, O. Schütt, J. V. Pototschnig, H. Mirhosseini, A. Knüpfer, D. Marx, 
 M. Krack, J. Hutter, T. D. Kühne.
 J. Phys. Chem. B 130, 1237-1310 (2026).
 The CP2K Program Package Made Simple.
 https://doi.org/10.1021/acs.jpcb.5c05851

 T. D. Kühne, M. Iannuzzi, M. Del Ben, V. V. Rybkin, P. Seewald, F. Stein, T. 
 Laino, R. Z. Khaliullin, O. Schütt, F. Schiffmann, D. Golze, J. Wilhelm, S. 
 Chulkov, M. H. Bani-Hashemian, V. Weber, U. Borstnik, M. Taillefumier, A. S. 
 Jakobovits, A. Lazzaro, H. Pabst, T. Müller, R. Schade, M. Guidon, S. 
 Andermatt, N. Holmberg, G. K. Schenter, A. Hehn, A. Bussy, F. Belleflamme, G. 
 Tabacchi, A. Glöß, M. Lass, I. Bethune, C. J. Mundy, C. Plessl, M. Watkins, 
 J. VandeVondele, M. Krack, J. Hutter.
 J. Chem. Phys. 152, 194103 (2020).
 CP2K: An electronic structure and molecular dynamics software package - 
 Quickstep: Efficient and accurate electronic structure calculations.
 https://doi.org/10.1063/5.0007045

 O. Schuett, P. Messmer, J. Hutter, J. VandeVondele.
 Electronic Structure Calculations on Graphics Processing Units, 173-190 (2016).
 GPU-Accelerated Sparse Matrix-Matrix Multiplication for Linear Scaling Density 
 Functional Theory.
 https://doi.org/10.1002/9781118670712.ch8

 U. Borstnik, J. VandeVondele, V. Weber, J. Hutter.
 Parallel Comput. 40, 47-58 (2014).
 Sparse matrix multiplication: The distributed block-compressed sparse row 
 library.
 https://doi.org/10.1016/j.parco.2014.03.012

 J. VandeVondele, J. Hutter.
 J. Chem. Phys. 127, 114105 (2007).
 Gaussian basis sets for accurate calculations on molecular systems in gas and 
 condensed phases.
 https://doi.org/10.1063/1.2770708

 T. D. Kühne, M. Krack, F. R. Mohamed, M. Parrinello.
 Phys. Rev. Lett. 98, 066401 (2007).
 Efficient and accurate Car-Parrinello-like approach to Born-Oppenheimer 
 molecular dynamics.
 https://doi.org/10.1103/PhysRevLett.98.066401

 J. VandeVondele, M. Krack, F. Mohamed, M. Parrinello, T. Chassaing, J. Hutter.
 Comput. Phys. Commun. 167, 103-128 (2005).
 QUICKSTEP: Fast and accurate density functional calculations using a mixed 
 Gaussian and plane waves approach.
 https://doi.org/10.1016/j.cpc.2004.12.014

 M. Krack.
 Theor. Chem. Acc. 114, 145-152 (2005).
 Pseudopotentials for H to Kr optimized for gradient-corrected 
 exchange-correlation functionals.
 https://doi.org/10.1007/s00214-005-0655-y

 M. Frigo, S. G. Johnson.
 Proc. IEEE 93, 216-231 (2005).
 The design and implementation of FFTW3.
 https://doi.org/10.1109/JPROC.2004.840301

 J. Kolafa.
 J. Comput. Chem. 25, 335-342 (2004).
 Time-reversible always stable predictor-corrector method for molecular dynamics 
 of polarizable molecules.
 https://doi.org/10.1002/jcc.10385

 C. Hartwigsen, S. Goedecker, J. Hutter.
 Phys. Rev. B 58, 3641-3662 (1998).
 Relativistic separable dual-space Gaussian pseudopotentials from H to Rn.
 https://doi.org/10.1103/PhysRevB.58.3641

 G. Lippert, J. Hutter, M. Parrinello.
 Mol. Phys. 92, 477-487 (1997).
 A hybrid Gaussian and plane wave density functional scheme.
 https://doi.org/10.1080/002689797170220

 S. Goedecker, M. Teter, J. Hutter.
 Phys. Rev. B 54, 1703-1710 (1996).
 Separable dual-space Gaussian pseudopotentials.
 https://doi.org/10.1103/PhysRevB.54.1703

 J. P. Perdew, K. Burke, M. Ernzerhof.
 Phys. Rev. Lett. 77, 3865-3868 (1996).
 Generalized gradient approximation made simple.
 https://doi.org/10.1103/PhysRevLett.77.3865

 R. Lindh, A. Bernhardsson, G. Karlström, P.-Å. Malmqvist.
 Chem. Phys. Lett. 241, 423-428 (1995).
 On the use of a Hessian model function in molecular geometry optimizations.
 https://doi.org/10.1016/0009-2614(95)00646-L


 -------------------------------------------------------------------------------
 -                                                                             -
 -                                T I M I N G                                  -
 -                                                                             -
 -------------------------------------------------------------------------------
 SUBROUTINE                       CALLS  ASD         SELF TIME        TOTAL TIME
                                MAXIMUM       AVERAGE  MAXIMUM  AVERAGE  MAXIMUM
 CP2K                                 1  1.0    0.012    0.012   17.538   17.538
 cp_geo_opt                           1  2.0    0.001    0.001   17.344   17.344
 geoopt_bfgs                          1  3.0    0.002    0.002   17.342   17.342
 cp_eval_at                          11  4.0    0.001    0.001   17.322   17.322
 qs_forces                           10  5.0    0.002    0.002   16.049   16.049
 qs_energies                         11  5.9    0.003    0.003   15.955   15.955
 scf_env_do_scf                      11  6.9    0.001    0.001   15.246   15.246
 scf_env_do_scf_inner_loop           92  7.9    0.004    0.004   15.245   15.245
 rebuild_ks_matrix                  102  9.6    0.000    0.000   13.658   13.658
 qs_ks_build_kohn_sham_matrix       102 10.6    0.007    0.007   13.658   13.658
 qs_ks_update_qs_env                 92  8.9    0.000    0.000   12.316   12.316
 qs_vxc_create                      102 11.6    0.002    0.002   10.154   10.154
 xc_vxc_pw_create                   102 12.6    0.550    0.550   10.152   10.152
 fft_wrap_pw1pw2                   1750 14.0    0.010    0.010    7.998    7.998
 fft_wrap_pw1pw2_140               1135 15.4    0.108    0.108    7.652    7.652
 xc_rho_set_and_dset_create         102 13.6    0.185    0.185    5.974    5.974
 xc_pw_derive                       612 14.6    0.002    0.002    5.188    5.188
 fft3d_s                           1751 16.0    5.140    5.140    5.144    5.144
 xc_pw_divergence                   102 13.6    0.001    0.001    3.512    3.512
 xc_functional_eval                 102 14.6    0.000    0.000    2.976    2.976
 pbe_lda_eval                       102 15.6    2.975    2.975    2.975    2.975
 qs_rho_update_rho_low              103  9.0    0.000    0.000    2.901    2.901
 calculate_rho_elec                 103 10.0    0.454    0.454    2.901    2.901
 density_rs2pw                      103 11.0    0.002    0.002    1.797    1.797
 pw_poisson_solve                   102 11.6    0.001    0.001    1.398    1.398
 qs_ks_update_qs_env_forces          10  6.0    0.000    0.000    1.344    1.344
 pw_scatter_s                       919 16.3    1.254    1.254    1.254    1.254
 sum_up_and_integrate               102 11.6    0.001    0.001    1.243    1.243
 integrate_v_rspace                 102 12.6    0.010    0.010    1.194    1.194
 pw_derive                          918 15.0    1.150    1.150    1.150    1.150
 potential_pw2rs                    102 13.6    0.015    0.015    1.006    1.006
 pw_copy                           1530 14.2    0.932    0.932    0.932    0.932
 pw_gather_s                        831 15.6    0.846    0.846    0.846    0.846
 grid_collocate_task_list           103 11.0    0.649    0.649    0.649    0.649
 pw_poisson_set                     103 12.6    0.002    0.002    0.636    0.636
 pw_integral_ab_c1d_c1d_gs          102 12.6    0.530    0.530    0.530    0.530
 pw_axpy                           1024 13.1    0.513    0.513    0.513    0.513
 init_scf_run                        11  6.9    0.001    0.001    0.427    0.427
 scf_env_initial_rho_setup           11  7.9    0.000    0.000    0.417    0.417
 wfi_extrapolate                     11  8.9    0.000    0.000    0.369    0.369
 -------------------------------------------------------------------------------

 The number of warnings for this run is : 0
 
 -------------------------------------------------------------------------------
  **** **** ******  **  PROGRAM ENDED AT                 2026-08-13 08:53:18.363
 ***** ** ***  *** **   PROGRAM RAN ON                   Seris-MacBook-Pro.local
 **    ****   ******    PROGRAM RAN BY                                      seri
 ***** **    ** ** **   PROGRAM PROCESS ID                                  1216
  **** **  *******  **  PROGRAM STOPPED IN /Users/seri/Documents/cp2k-practice/0
                                           1_basics/h2o_energy
