       3
 i =        1, E =       -17.2133171659
  O         0.0111013397        0.0495240694        0.0771448089
  H         1.0522065928       -0.0519313927       -0.0812857983
  H        -0.2803051389       -0.4561833595       -0.7136388756
       3
 i =        2, E =       -17.2044150896
  O         0.0993211128        0.0297493133        0.0374612445
  H         0.9515659142       -0.0202607292       -0.0318175649
  H        -0.2686822994       -0.4596123079       -0.7182962637
       3
 i =        3, E =       -17.2189640427
  O         0.0450098180        0.0333180514        0.0449271656
  H         1.0394935380       -0.0303579024       -0.0449406469
  H        -0.3018030731       -0.4582986021       -0.7164793295
       3
 i =        4, E =       -17.2196729440
  O         0.0499441594        0.0350344987        0.0449631051
  H         1.0242080185       -0.0309850407       -0.0460971145
  H        -0.2912778038       -0.4591029023       -0.7175884834
       3
 i =        5, E =       -17.2197695635
  O         0.0528352463        0.0362221114        0.0424029417
  H         1.0157866039       -0.0300273152       -0.0448194207
  H        -0.2882764528       -0.4597185714       -0.7184564485
       3
 i =        6, E =       -17.2197722849
  O         0.0511610350        0.0369509665        0.0419839124
  H         1.0152624132       -0.0300019370       -0.0446386504
  H        -0.2889127281       -0.4599585408       -0.7187512312
       3
 i =        7, E =       -17.2197737781
  O         0.0492343444        0.0380225747        0.0408430988
  H         1.0137557588       -0.0296980990       -0.0439830406
  H        -0.2898840426       -0.4604171305       -0.7192943409
       3
 i =        8, E =       -17.2197751029
  O         0.0458750866        0.0388615428        0.0396630014
  H         1.0105643883       -0.0290282847       -0.0426402959
  H        -0.2914786603       -0.4612343705       -0.7201722276
       3
 i =        9, E =       -17.2197755799
  O         0.0450214028        0.0381960502        0.0397644093
  H         1.0095540038       -0.0287362749       -0.0420629578
  H        -0.2920563808       -0.4615304990       -0.7204050179
       3
 i =       10, E =       -17.2197755802
  O         0.0450214028        0.0381960502        0.0397644093
  H         1.0095540038       -0.0287362749       -0.0420629578
  H        -0.2920563808       -0.4615304990       -0.7204050179
