       3
 i =        1, E =       -17.2196918173
  O        -2.3231844421        3.0694687243        0.0189742093
  H        -1.4052522824        2.7646216324        0.0172642842
  H        -2.6917823273        2.5584485760       -0.7147122672
       3
 i =        2, E =       -17.2200955574
  O        -2.3145584863        3.0593946577        0.0028346211
  H        -1.3900606837        2.7688193505        0.0280907757
  H        -2.7103338830        2.5560894982       -0.7245163501
       3
 i =        3, E =       -17.2201055190
  O        -2.3159721097        3.0557215323        0.0023837022
  H        -1.3905368367        2.7666359156        0.0256924712
  H        -2.7087929295        2.5528592041       -0.7273535998
       3
 i =        4, E =       -17.2201075596
  O        -2.3160465394        3.0564850107       -0.0021536812
  H        -1.3911536494        2.7628639374        0.0216523467
  H        -2.7055958318        2.5479380434       -0.7312412694
       3
 i =        5, E =       -17.2201115669
  O        -2.3152613527        3.0560822436        0.0004230924
  H        -1.3905217903        2.7636872261        0.0227961662
  H        -2.7058911803        2.5497655902       -0.7292837346
       3
 i =        6, E =       -17.2201115970
  O        -2.3150585129        3.0559918227        0.0003536779
  H        -1.3903232163        2.7635416129        0.0229004841
  H        -2.7059245642        2.5497508245       -0.7291991574
       3
 i =        7, E =       -17.2201115970
  O        -2.3150585129        3.0559918227        0.0003536779
  H        -1.3903232163        2.7635416129        0.0229004841
  H        -2.7059245642        2.5497508245       -0.7291991574
